[runlim] version:		1.10
[runlim] time limit:		311040000 seconds
[runlim] real time limit:	600 seconds
[runlim] space limit:		14000 MB
[runlim] argv[0]:		python3
[runlim] argv[1]:		cp.py
[runlim] argv[2]:		scen07
[runlim] start:			Tue Jan 20 18:11:11 2026
[runlim] main pid:		159450
[runlim] sample:		10.0 time, 10.1 real, 602.3 MB
[runlim] sample:		20.0 time, 20.1 real, 1476.3 MB
[runlim] sample:		30.0 time, 30.1 real, 1589.6 MB
[runlim] sample:		40.0 time, 40.1 real, 3696.9 MB
Building CP model...
Solving CP Optimizer...
 ! --------------------------------------------------- CP Optimizer 22.1.1.0 --
 ! Minimization problem - 15996 variables, 1842244 constraints
 ! Presolve      : 1842646 extractables eliminated
 ! LogVerbosity         = Terse
 ! Initial process time : 16.07s (16.00s extraction + 0.08s propagation)
 !  . Log search space  : 15996.0 (before), 15996.0 (after)
 !  . Memory usage      : 229.7 MB (before), 229.7 MB (after)
 ! Using parallel search with 12 workers.
 ! ----------------------------------------------------------------------------
 !          Best Branches  Non-fixed    W       Branch decision
                        0      15996                 -
 + New bound is 0
[runlim] sample:		60.8 time, 50.1 real, 5876.2 MB
[runlim] end:			Tue Jan 20 18:12:06 2026
[runlim] status:		out of memory
[runlim] result:		3
[runlim] children:		412
[runlim] real:			55.81 seconds
[runlim] time:			127.75 seconds
[runlim] space:			14004.6 MB
[runlim] samples:		557
